Mo S 
 1.0000000000000000
     3.1911949999999996    0.0000000000000000    0.0000000000000000
    -1.5955980000000001    2.7636560000000001    0.0000000000000000
    -0.0000000000000000   -0.0000000000000000   18.1271099999999983
 Mo  S  
   1   2
Selective dynamics
Cartesian
  0.0000000000000000  0.0000000000000000  9.0635549999999991   T   T   T
  1.5955989289309997  0.9212177454480001 10.6337615224199986   T   T   T
  1.5955989289309997  0.9212177454480001  7.4933484775799997   T   T   T
Cartesian
  0.0000000000000000  0.0000000000000000  0.0000000000000000
  0.0000000000000000  0.0000000000000000  0.0000000000000000
  0.0000000000000000  0.0000000000000000  0.0000000000000000
